0,42,160,34,136,134,94,78,18,196
42,0,166,66,106,87,11,122,195,32
160,166,0,4,98,198,3,154,75,121
34,66,4,0,187,112,52,94,36,144
136,106,98,187,0,12,64,45,46,48
134,87,198,112,12,0,154,109,196,131
94,11,3,52,64,154,0,11,79,80
78,122,154,94,45,109,11,0,13,86
18,195,75,36,46,196,79,13,0,162
196,32,121,144,48,131,80,86,162,0
